100
3779
29 33
44 123
98 125
61 96
3 115
25 41
79 168
85 154
12 43
62 86
66 79
88 86
73 107
22 80
100 128
71 96
43 119
86 151
62 191
74 194
48 65
52 130
36 30
83 147
68 158
75 26
6 59
79 149
80 150
30 43
22 103
43 11
12 82
27 22
79 145
79 194
29 70
44 146
71 161
66 88
64 149
23 136
96 101
9 101
60 55
62 158
16 81
34 163
80 61
22 53
26 187
79 137
51 183
6 84
22 145
29 93
10 51
56 62
76 168
97 35
78 28
24 159
54 133
39 187
92 121
65 59
20 200
27 72
69 71
42 175
41 108
100 156
42 131
69 160
37 97
59 13
42 58
79 126
60 120
43 149
53 58
83 11
89 55
57 121
76 49
68 132
50 174
54 176
77 179
99 21
62 90
34 91
73 17
93 136
12 64
66 195
43 10
4 180
39 21
56 193
